p cnf 331 1010
e 1 2 3 0
a 4 5 6 0
e 7 8 9 0
a 10 11 12 0
e 13 14 15 0
a 16 17 18 0
e 19 20 21 22 23 24 25 26 27 28 29 30 31 32 33 0
e 34 35 36 37 38 39 40 41 42 43 44 45 46 47 48 49 50 51 52 53 54 55 56 57 58 59 60 61 62 63 64 65 66 67 68 69 70 71 72 73 74 75 76 77 78 79 80 81 82 83 84 85 86 87 88 89 90 91 92 93 94 95 96 97 98 99 100 101 102 103 104 105 106 107 108 109 110 111 112 113 114 115 116 117 118 119 120 121 122 123 124 125 126 127 128 129 130 131 132 133 134 135 136 137 138 139 140 141 142 143 144 145 146 147 148 149 150 151 152 153 154 155 156 157 158 159 160 161 162 163 164 165 166 167 168 169 170 171 172 173 174 175 176 177 178 179 180 181 182 183 184 185 186 187 188 189 190 191 192 193 194 195 196 197 198 199 200 201 202 203 204 205 206 207 208 209 210 211 212 213 214 215 216 217 218 219 220 221 222 223 224 225 226 227 228 229 230 231 232 233 234 235 236 237 238 239 240 241 242 243 244 245 246 247 248 249 250 251 252 253 254 255 256 257 258 259 260 261 262 263 264 265 266 267 268 269 270 271 272 273 274 275 276 277 278 279 280 281 282 283 284 285 286 287 288 289 290 291 292 293 294 295 296 297 298 299 300 301 302 303 304 305 306 307 308 309 310 311 312 313 314 315 316 317 318 319 320 321 322 323 324 325 326 327 328 329 330 331 0
7 34 0
-4 34 0
-7 4 -34 0
4 35 0
-7 35 0
-4 7 -35 0
34 -36 0
35 -36 0
-34 -35 36 0
8 37 0
-5 37 0
-8 5 -37 0
5 38 0
-8 38 0
-5 8 -38 0
37 -39 0
38 -39 0
-37 -38 39 0
9 40 0
-6 40 0
-9 6 -40 0
6 41 0
-9 41 0
-6 9 -41 0
40 -42 0
41 -42 0
-40 -41 42 0
36 -43 0
39 -43 0
42 -43 0
-36 -39 -42 43 0
13 44 0
-4 44 0
-13 4 -44 0
4 45 0
-13 45 0
-4 13 -45 0
44 -46 0
45 -46 0
-44 -45 46 0
14 47 0
-5 47 0
-14 5 -47 0
5 48 0
-14 48 0
-5 14 -48 0
47 -49 0
48 -49 0
-47 -48 49 0
15 50 0
-6 50 0
-15 6 -50 0
6 51 0
-15 51 0
-6 15 -51 0
50 -52 0
51 -52 0
-50 -51 52 0
46 -53 0
49 -53 0
52 -53 0
-46 -49 -52 53 0
13 54 0
-10 54 0
-13 10 -54 0
10 55 0
-13 55 0
-10 13 -55 0
54 -56 0
55 -56 0
-54 -55 56 0
14 57 0
-11 57 0
-14 11 -57 0
11 58 0
-14 58 0
-11 14 -58 0
57 -59 0
58 -59 0
-57 -58 59 0
15 60 0
-12 60 0
-15 12 -60 0
12 61 0
-15 61 0
-12 15 -61 0
60 -62 0
61 -62 0
-60 -61 62 0
56 -63 0
59 -63 0
62 -63 0
-56 -59 -62 63 0
19 64 0
-4 64 0
-19 4 -64 0
4 65 0
-19 65 0
-4 19 -65 0
64 -66 0
65 -66 0
-64 -65 66 0
20 67 0
-5 67 0
-20 5 -67 0
5 68 0
-20 68 0
-5 20 -68 0
67 -69 0
68 -69 0
-67 -68 69 0
21 70 0
-6 70 0
-21 6 -70 0
6 71 0
-21 71 0
-6 21 -71 0
70 -72 0
71 -72 0
-70 -71 72 0
66 -73 0
69 -73 0
72 -73 0
-66 -69 -72 73 0
19 74 0
-10 74 0
-19 10 -74 0
10 75 0
-19 75 0
-10 19 -75 0
74 -76 0
75 -76 0
-74 -75 76 0
20 77 0
-11 77 0
-20 11 -77 0
11 78 0
-20 78 0
-11 20 -78 0
77 -79 0
78 -79 0
-77 -78 79 0
21 80 0
-12 80 0
-21 12 -80 0
12 81 0
-21 81 0
-12 21 -81 0
80 -82 0
81 -82 0
-80 -81 82 0
76 -83 0
79 -83 0
82 -83 0
-76 -79 -82 83 0
19 84 0
-16 84 0
-19 16 -84 0
16 85 0
-19 85 0
-16 19 -85 0
84 -86 0
85 -86 0
-84 -85 86 0
20 87 0
-17 87 0
-20 17 -87 0
17 88 0
-20 88 0
-17 20 -88 0
87 -89 0
88 -89 0
-87 -88 89 0
21 90 0
-18 90 0
-21 18 -90 0
18 91 0
-21 91 0
-18 21 -91 0
90 -92 0
91 -92 0
-90 -91 92 0
86 -93 0
89 -93 0
92 -93 0
-86 -89 -92 93 0
22 94 0
-1 94 0
-22 1 -94 0
1 95 0
-22 95 0
-1 22 -95 0
94 -96 0
95 -96 0
-94 -95 96 0
23 97 0
-2 97 0
-23 2 -97 0
2 98 0
-23 98 0
-2 23 -98 0
97 -99 0
98 -99 0
-97 -98 99 0
24 100 0
-3 100 0
-24 3 -100 0
3 101 0
-24 101 0
-3 24 -101 0
100 -102 0
101 -102 0
-100 -101 102 0
96 -103 0
99 -103 0
102 -103 0
-96 -99 -102 103 0
22 104 0
-7 104 0
-22 7 -104 0
7 105 0
-22 105 0
-7 22 -105 0
104 -106 0
105 -106 0
-104 -105 106 0
23 107 0
-8 107 0
-23 8 -107 0
8 108 0
-23 108 0
-8 23 -108 0
107 -109 0
108 -109 0
-107 -108 109 0
24 110 0
-9 110 0
-24 9 -110 0
9 111 0
-24 111 0
-9 24 -111 0
110 -112 0
111 -112 0
-110 -111 112 0
106 -113 0
109 -113 0
112 -113 0
-106 -109 -112 113 0
22 114 0
-13 114 0
-22 13 -114 0
13 115 0
-22 115 0
-13 22 -115 0
114 -116 0
115 -116 0
-114 -115 116 0
23 117 0
-14 117 0
-23 14 -117 0
14 118 0
-23 118 0
-14 23 -118 0
117 -119 0
118 -119 0
-117 -118 119 0
24 120 0
-15 120 0
-24 15 -120 0
15 121 0
-24 121 0
-15 24 -121 0
120 -122 0
121 -122 0
-120 -121 122 0
116 -123 0
119 -123 0
122 -123 0
-116 -119 -122 123 0
22 124 0
-19 124 0
-22 19 -124 0
19 125 0
-22 125 0
-19 22 -125 0
124 -126 0
125 -126 0
-124 -125 126 0
23 127 0
-20 127 0
-23 20 -127 0
20 128 0
-23 128 0
-20 23 -128 0
127 -129 0
128 -129 0
-127 -128 129 0
24 130 0
-21 130 0
-24 21 -130 0
21 131 0
-24 131 0
-21 24 -131 0
130 -132 0
131 -132 0
-130 -131 132 0
126 -133 0
129 -133 0
132 -133 0
-126 -129 -132 133 0
-103 134 0
-113 134 0
-123 134 0
-133 134 0
103 113 123 133 -134 0
25 135 0
-1 135 0
-25 1 -135 0
1 136 0
-25 136 0
-1 25 -136 0
135 -137 0
136 -137 0
-135 -136 137 0
26 138 0
-2 138 0
-26 2 -138 0
2 139 0
-26 139 0
-2 26 -139 0
138 -140 0
139 -140 0
-138 -139 140 0
27 141 0
-3 141 0
-27 3 -141 0
3 142 0
-27 142 0
-3 27 -142 0
141 -143 0
142 -143 0
-141 -142 143 0
137 -144 0
140 -144 0
143 -144 0
-137 -140 -143 144 0
25 145 0
-7 145 0
-25 7 -145 0
7 146 0
-25 146 0
-7 25 -146 0
145 -147 0
146 -147 0
-145 -146 147 0
26 148 0
-8 148 0
-26 8 -148 0
8 149 0
-26 149 0
-8 26 -149 0
148 -150 0
149 -150 0
-148 -149 150 0
27 151 0
-9 151 0
-27 9 -151 0
9 152 0
-27 152 0
-9 27 -152 0
151 -153 0
152 -153 0
-151 -152 153 0
147 -154 0
150 -154 0
153 -154 0
-147 -150 -153 154 0
25 155 0
-13 155 0
-25 13 -155 0
13 156 0
-25 156 0
-13 25 -156 0
155 -157 0
156 -157 0
-155 -156 157 0
26 158 0
-14 158 0
-26 14 -158 0
14 159 0
-26 159 0
-14 26 -159 0
158 -160 0
159 -160 0
-158 -159 160 0
27 161 0
-15 161 0
-27 15 -161 0
15 162 0
-27 162 0
-15 27 -162 0
161 -163 0
162 -163 0
-161 -162 163 0
157 -164 0
160 -164 0
163 -164 0
-157 -160 -163 164 0
25 165 0
-19 165 0
-25 19 -165 0
19 166 0
-25 166 0
-19 25 -166 0
165 -167 0
166 -167 0
-165 -166 167 0
26 168 0
-20 168 0
-26 20 -168 0
20 169 0
-26 169 0
-20 26 -169 0
168 -170 0
169 -170 0
-168 -169 170 0
27 171 0
-21 171 0
-27 21 -171 0
21 172 0
-27 172 0
-21 27 -172 0
171 -173 0
172 -173 0
-171 -172 173 0
167 -174 0
170 -174 0
173 -174 0
-167 -170 -173 174 0
-144 175 0
-154 175 0
-164 175 0
-174 175 0
144 154 164 174 -175 0
28 176 0
-1 176 0
-28 1 -176 0
1 177 0
-28 177 0
-1 28 -177 0
176 -178 0
177 -178 0
-176 -177 178 0
29 179 0
-2 179 0
-29 2 -179 0
2 180 0
-29 180 0
-2 29 -180 0
179 -181 0
180 -181 0
-179 -180 181 0
30 182 0
-3 182 0
-30 3 -182 0
3 183 0
-30 183 0
-3 30 -183 0
182 -184 0
183 -184 0
-182 -183 184 0
178 -185 0
181 -185 0
184 -185 0
-178 -181 -184 185 0
28 186 0
-7 186 0
-28 7 -186 0
7 187 0
-28 187 0
-7 28 -187 0
186 -188 0
187 -188 0
-186 -187 188 0
29 189 0
-8 189 0
-29 8 -189 0
8 190 0
-29 190 0
-8 29 -190 0
189 -191 0
190 -191 0
-189 -190 191 0
30 192 0
-9 192 0
-30 9 -192 0
9 193 0
-30 193 0
-9 30 -193 0
192 -194 0
193 -194 0
-192 -193 194 0
188 -195 0
191 -195 0
194 -195 0
-188 -191 -194 195 0
28 196 0
-13 196 0
-28 13 -196 0
13 197 0
-28 197 0
-13 28 -197 0
196 -198 0
197 -198 0
-196 -197 198 0
29 199 0
-14 199 0
-29 14 -199 0
14 200 0
-29 200 0
-14 29 -200 0
199 -201 0
200 -201 0
-199 -200 201 0
30 202 0
-15 202 0
-30 15 -202 0
15 203 0
-30 203 0
-15 30 -203 0
202 -204 0
203 -204 0
-202 -203 204 0
198 -205 0
201 -205 0
204 -205 0
-198 -201 -204 205 0
28 206 0
-19 206 0
-28 19 -206 0
19 207 0
-28 207 0
-19 28 -207 0
206 -208 0
207 -208 0
-206 -207 208 0
29 209 0
-20 209 0
-29 20 -209 0
20 210 0
-29 210 0
-20 29 -210 0
209 -211 0
210 -211 0
-209 -210 211 0
30 212 0
-21 212 0
-30 21 -212 0
21 213 0
-30 213 0
-21 30 -213 0
212 -214 0
213 -214 0
-212 -213 214 0
208 -215 0
211 -215 0
214 -215 0
-208 -211 -214 215 0
-185 216 0
-195 216 0
-205 216 0
-215 216 0
185 195 205 215 -216 0
31 217 0
-1 217 0
-31 1 -217 0
1 218 0
-31 218 0
-1 31 -218 0
217 -219 0
218 -219 0
-217 -218 219 0
32 220 0
-2 220 0
-32 2 -220 0
2 221 0
-32 221 0
-2 32 -221 0
220 -222 0
221 -222 0
-220 -221 222 0
33 223 0
-3 223 0
-33 3 -223 0
3 224 0
-33 224 0
-3 33 -224 0
223 -225 0
224 -225 0
-223 -224 225 0
219 -226 0
222 -226 0
225 -226 0
-219 -222 -225 226 0
31 227 0
-7 227 0
-31 7 -227 0
7 228 0
-31 228 0
-7 31 -228 0
227 -229 0
228 -229 0
-227 -228 229 0
32 230 0
-8 230 0
-32 8 -230 0
8 231 0
-32 231 0
-8 32 -231 0
230 -232 0
231 -232 0
-230 -231 232 0
33 233 0
-9 233 0
-33 9 -233 0
9 234 0
-33 234 0
-9 33 -234 0
233 -235 0
234 -235 0
-233 -234 235 0
229 -236 0
232 -236 0
235 -236 0
-229 -232 -235 236 0
31 237 0
-13 237 0
-31 13 -237 0
13 238 0
-31 238 0
-13 31 -238 0
237 -239 0
238 -239 0
-237 -238 239 0
32 240 0
-14 240 0
-32 14 -240 0
14 241 0
-32 241 0
-14 32 -241 0
240 -242 0
241 -242 0
-240 -241 242 0
33 243 0
-15 243 0
-33 15 -243 0
15 244 0
-33 244 0
-15 33 -244 0
243 -245 0
244 -245 0
-243 -244 245 0
239 -246 0
242 -246 0
245 -246 0
-239 -242 -245 246 0
31 247 0
-19 247 0
-31 19 -247 0
19 248 0
-31 248 0
-19 31 -248 0
247 -249 0
248 -249 0
-247 -248 249 0
32 250 0
-20 250 0
-32 20 -250 0
20 251 0
-32 251 0
-20 32 -251 0
250 -252 0
251 -252 0
-250 -251 252 0
33 253 0
-21 253 0
-33 21 -253 0
21 254 0
-33 254 0
-21 33 -254 0
253 -255 0
254 -255 0
-253 -254 255 0
249 -256 0
252 -256 0
255 -256 0
-249 -252 -255 256 0
-226 257 0
-236 257 0
-246 257 0
-256 257 0
226 236 246 256 -257 0
-22 -258 0
-23 -258 0
24 -258 0
22 23 -24 258 0
22 -259 0
-23 -259 0
-24 -259 0
-22 23 24 259 0
-258 260 0
-259 260 0
258 259 -260 0
-22 -261 0
-23 -261 0
-24 -261 0
22 23 24 261 0
-25 -262 0
26 -262 0
-27 -262 0
25 -26 27 262 0
-25 -263 0
-26 -263 0
27 -263 0
25 26 -27 263 0
-262 264 0
-263 264 0
262 263 -264 0
261 265 0
-264 265 0
-261 264 -265 0
-25 -266 0
-26 -266 0
-27 -266 0
25 26 27 266 0
-262 267 0
-266 267 0
262 266 -267 0
258 268 0
-267 268 0
-258 267 -268 0
-22 -269 0
23 -269 0
-24 -269 0
22 -23 24 269 0
25 -270 0
-26 -270 0
27 -270 0
-25 26 -27 270 0
-25 -271 0
26 -271 0
27 -271 0
25 -26 -27 271 0
25 -272 0
-26 -272 0
-27 -272 0
-25 26 27 272 0
-266 273 0
-270 273 0
-263 273 0
-271 273 0
-272 273 0
266 270 263 271 272 -273 0
269 274 0
-273 274 0
-269 273 -274 0
-22 -275 0
23 -275 0
24 -275 0
22 -23 -24 275 0
275 276 0
-271 276 0
-275 271 -276 0
-270 277 0
-262 277 0
270 262 -277 0
259 278 0
-277 278 0
-259 277 -278 0
22 -279 0
-23 -279 0
24 -279 0
-22 23 -24 279 0
25 -280 0
26 -280 0
27 -280 0
-25 -26 -27 280 0
25 -281 0
26 -281 0
-27 -281 0
-25 -26 27 281 0
-262 282 0
-280 282 0
-272 282 0
-281 282 0
-271 282 0
262 280 272 281 271 -282 0
279 283 0
-282 283 0
-279 282 -283 0
22 -284 0
23 -284 0
-24 -284 0
-22 -23 24 284 0
284 285 0
-281 285 0
-284 281 -285 0
22 -286 0
23 -286 0
24 -286 0
-22 -23 -24 286 0
286 287 0
-280 287 0
-286 280 -287 0
-28 -288 0
29 -288 0
-30 -288 0
28 -29 30 288 0
-28 -289 0
-29 -289 0
30 -289 0
28 29 -30 289 0
-288 290 0
-289 290 0
288 289 -290 0
266 291 0
-290 291 0
-266 290 -291 0
-28 -292 0
-29 -292 0
-30 -292 0
28 29 30 292 0
-288 293 0
-292 293 0
288 292 -293 0
263 294 0
-293 294 0
-263 293 -294 0
28 -295 0
-29 -295 0
30 -295 0
-28 29 -30 295 0
-28 -296 0
29 -296 0
30 -296 0
28 -29 -30 296 0
28 -297 0
-29 -297 0
-30 -297 0
-28 29 30 297 0
-292 298 0
-295 298 0
-289 298 0
-296 298 0
-297 298 0
292 295 289 296 297 -298 0
262 299 0
-298 299 0
-262 298 -299 0
271 300 0
-296 300 0
-271 296 -300 0
-295 301 0
-288 301 0
295 288 -301 0
272 302 0
-301 302 0
-272 301 -302 0
28 -303 0
29 -303 0
30 -303 0
-28 -29 -30 303 0
28 -304 0
29 -304 0
-30 -304 0
-28 -29 30 304 0
-288 305 0
-303 305 0
-297 305 0
-304 305 0
-296 305 0
288 303 297 304 296 -305 0
270 306 0
-305 306 0
-270 305 -306 0
281 307 0
-304 307 0
-281 304 -307 0
280 308 0
-303 308 0
-280 303 -308 0
-31 -309 0
32 -309 0
-33 -309 0
31 -32 33 309 0
-31 -310 0
-32 -310 0
33 -310 0
31 32 -33 310 0
-309 311 0
-310 311 0
309 310 -311 0
292 312 0
-311 312 0
-292 311 -312 0
-31 -313 0
-32 -313 0
-33 -313 0
31 32 33 313 0
-309 314 0
-313 314 0
309 313 -314 0
289 315 0
-314 315 0
-289 314 -315 0
31 -316 0
-32 -316 0
33 -316 0
-31 32 -33 316 0
-31 -317 0
32 -317 0
33 -317 0
31 -32 -33 317 0
31 -318 0
-32 -318 0
-33 -318 0
-31 32 33 318 0
-313 319 0
-316 319 0
-310 319 0
-317 319 0
-318 319 0
313 316 310 317 318 -319 0
288 320 0
-319 320 0
-288 319 -320 0
296 321 0
-317 321 0
-296 317 -321 0
-316 322 0
-309 322 0
316 309 -322 0
297 323 0
-322 323 0
-297 322 -323 0
31 -324 0
32 -324 0
33 -324 0
-31 -32 -33 324 0
31 -325 0
32 -325 0
-33 -325 0
-31 -32 33 325 0
-309 326 0
-324 326 0
-318 326 0
-325 326 0
-317 326 0
309 324 318 325 317 -326 0
295 327 0
-326 327 0
-295 326 -327 0
304 328 0
-325 328 0
-304 325 -328 0
303 329 0
-324 329 0
-303 324 -329 0
-317 330 0
-325 330 0
-324 330 0
317 325 324 -330 0
-43 -331 0
-53 -331 0
-63 -331 0
-73 -331 0
-83 -331 0
-93 -331 0
134 -331 0
175 -331 0
216 -331 0
257 -331 0
260 -331 0
265 -331 0
268 -331 0
274 -331 0
276 -331 0
278 -331 0
283 -331 0
285 -331 0
287 -331 0
291 -331 0
294 -331 0
299 -331 0
300 -331 0
302 -331 0
306 -331 0
307 -331 0
308 -331 0
312 -331 0
315 -331 0
320 -331 0
321 -331 0
323 -331 0
327 -331 0
328 -331 0
329 -331 0
330 -331 0
43 53 63 73 83 93 -134 -175 -216 -257 -260 -265 -268 -274 -276 -278 -283 -285 -287 -291 -294 -299 -300 -302 -306 -307 -308 -312 -315 -320 -321 -323 -327 -328 -329 -330 331 0
331 0

